NAME: test1826
TYPE: TSP
DIMENSION: 11
EDGE_WEIGHT_TYPE: EUC_2D
NODE_COORD_SECTION
1 68.92234509258827 15.955709587266497
2 90.59240071591431 35.41804043799727
3 95.19550832573427 84.49688227056272
4 42.20314231913724 62.11005413647951
5 17.46365968595732 5.935754940321935
6 48.20190633255098 82.8752622205612
7 26.576997319055316 93.70122770042005
8 7.573703087307626 55.49839026841563
9 8.709888181620407 0.41722134006806355
10 25.000363446868125 86.92438690581528
11 42.81460228255922 39.40441264549895
EOF
